Optimal - objective value 636.00000000
      0 C_0       52.9999999999998                       0
      1 C_1       64.9999999999999                       0
      2 C_2                    11                       0
      3 C_3       36.9999999999999                       0
      4 C_4                    13                       0
      5 C_5       72.9999999999998                       0
      6 C_6                    24                       0
      7 C_7       41.9999999999999                       0
      9 x_0_1                   1                     888
     10 x_1_0                   1                     296
     13 x_2_1                   1                    6808
     14 x_3_0                   1                    1480
     16 x_4_0                   1                    3256
     19 x_5_1                   1                     296
     21 x_6_1                   1                    4440
     23 x_7_1                   1                    2368
     28 d_0_3_0                 1                       0
     29 d_0_3_1                 1                       0
     33 d_0_5_1                 1                     296
     34 d_0_6_0                 1                       0
     36 d_0_7_0                 1                       0
     38 d_1_2_0                 1                       0
     39 d_1_2_1                 1                       0
     41 d_1_3_1                 1                       0
     43 d_1_4_1                 1                       0
     44 d_1_5_0                 1                       0
     45 d_1_5_1                 1                       0
     46 d_1_6_0                 1                       0
     47 d_1_6_1                 1                       0
     48 d_1_7_0                 1                       0
     49 d_1_7_1                 1                       0
     50 d_2_3_0                 1                       0
     52 d_2_4_0                 1                       0
     54 d_2_5_0                 1                       0
     55 d_2_5_1                 1                       0
     56 d_2_6_0                 1                       0
     57 d_2_6_1                 1                    2664
     58 d_2_7_0                 1                       0
     59 d_2_7_1                 1                       0
     62 d_3_5_0                 1                       0
     64 d_3_6_0                 1                       0
     65 d_3_6_1                 1                       0
     66 d_3_7_0                 1                       0
     67 d_3_7_1                 1                       0
     68 d_4_5_0                 1                       0
     69 d_4_5_1                 1                       0
     70 d_4_6_0                 1                       0
     71 d_4_6_1                 1                       0
     76 d_5_7_0                 1                       0
     79 d_6_7_1                 1                    1776
